5 5
0 3 4 2 7
3 0 4 6 3
4 4 0 5 8
2 6 5 0 6
7 3 8 6 0

5 5
0 3 1 5 8
3 0 6 7 9
1 6 0 4 2
5 7 4 0 3
8 9 2 3 0

5 5
0  10 8  9 7
10 0  10 5 6
8  10 0  8 9
9  5  8  0 6
7  6  9  6 0

6 6
0  5  7  16 15 18
5  0  5  12 11 14
7  5  0  14 15 18
16 12 14 0  3  7
15 11 15 3  0  5
18 14 18 7  5  0